examples/example_20/_reconciled.nl
g3 1 1 0	# problem unknown
 28 28 0 0 28 	# vars, constraints, objectives, ranges, eqns
 9 0 0 0 0 0	# nonlinear constrs, objs; ccons: lin, nonlin, nd, nzlb
 0 0	# network constraints: nonlinear, linear
 15 0 0 	# nonlinear vars in constraints, objectives, both
 0 0 0 1	# linear network variables; functions; arith, flags
 0 0 0 0 0 	# discrete variables: binary, integer, nonlinear (b,c,o)
 106 0 	# nonzeros in Jacobian, obj. gradient
 32 22	# max name lengths: constraints, variables
 0 0 0 0 0	# common exprs: b,c,o,c1,o1
C0	#odes[0.155051,A]
o0	#+
o2	#*
n-1
o2	#*
o2	#*
n-1
v0	#Z[0.155051,A]
o3	#/
o2	#*
n0.10000000000000002
v12	#step[0.155051,s_Qin_B]
v9	#X[0.155051,V]
o2	#*
o2	#*
n1.4158423295999996
v0	#Z[0.155051,A]
v1	#Z[0.155051,B]
C1	#odes[0.155051,B]
o0	#+
o2	#*
n-1
o2	#*
o0	#+
n1.9999999999999998
o2	#*
n-1
v1	#Z[0.155051,B]
o3	#/
o2	#*
n0.10000000000000002
v12	#step[0.155051,s_Qin_B]
v9	#X[0.155051,V]
o2	#*
o2	#*
n1.4158423295999996
v0	#Z[0.155051,A]
v1	#Z[0.155051,B]
C2	#odes[0.155051,C]
o0	#+
o2	#*
n-1
o2	#*
o2	#*
n-1
v2	#Z[0.155051,C]
o3	#/
o2	#*
n0.10000000000000002
v12	#step[0.155051,s_Qin_B]
v9	#X[0.155051,V]
o2	#*
n-1
o2	#*
o2	#*
n1.4158423295999996
v0	#Z[0.155051,A]
v1	#Z[0.155051,B]
C3	#odes[0.644949,A]
o0	#+
o2	#*
n-1
o2	#*
o2	#*
n-1
v3	#Z[0.644949,A]
o3	#/
o2	#*
n0.10000000000000002
v13	#step[0.644949,s_Qin_B]
v10	#X[0.644949,V]
o2	#*
o2	#*
n1.4158423295999996
v3	#Z[0.644949,A]
v4	#Z[0.644949,B]
C4	#odes[0.644949,B]
o0	#+
o2	#*
n-1
o2	#*
o0	#+
n1.9999999999999998
o2	#*
n-1
v4	#Z[0.644949,B]
o3	#/
o2	#*
n0.10000000000000002
v13	#step[0.644949,s_Qin_B]
v10	#X[0.644949,V]
o2	#*
o2	#*
n1.4158423295999996
v3	#Z[0.644949,A]
v4	#Z[0.644949,B]
C5	#odes[0.644949,C]
o0	#+
o2	#*
n-1
o2	#*
o2	#*
n-1
v5	#Z[0.644949,C]
o3	#/
o2	#*
n0.10000000000000002
v13	#step[0.644949,s_Qin_B]
v10	#X[0.644949,V]
o2	#*
n-1
o2	#*
o2	#*
n1.4158423295999996
v3	#Z[0.644949,A]
v4	#Z[0.644949,B]
C6	#odes[1,A]
o0	#+
o2	#*
n-1
o2	#*
o2	#*
n-1
v6	#Z[1,A]
o3	#/
o2	#*
n0.10000000000000002
v14	#step[1,s_Qin_B]
v11	#X[1,V]
o2	#*
o2	#*
n1.4158423295999996
v6	#Z[1,A]
v7	#Z[1,B]
C7	#odes[1,B]
o0	#+
o2	#*
n-1
o2	#*
o0	#+
n1.9999999999999998
o2	#*
n-1
v7	#Z[1,B]
o3	#/
o2	#*
n0.10000000000000002
v14	#step[1,s_Qin_B]
v11	#X[1,V]
o2	#*
o2	#*
n1.4158423295999996
v6	#Z[1,A]
v7	#Z[1,B]
C8	#odes[1,C]
o0	#+
o2	#*
n-1
o2	#*
o2	#*
n-1
v8	#Z[1,C]
o3	#/
o2	#*
n0.10000000000000002
v14	#step[1,s_Qin_B]
v11	#X[1,V]
o2	#*
n-1
o2	#*
o2	#*
n1.4158423295999996
v6	#Z[1,A]
v7	#Z[1,B]
C9	#stepconstraint[0,s_Qin_B]
n0
C10	#stepconstraint[0.155051,s_Qin_B]
n0
C11	#stepconstraint[0.644949,s_Qin_B]
n0
C12	#stepconstraint[1,s_Qin_B]
n0
C13	#odes[0.155051,V]
n0
C14	#odes[0.644949,V]
n0
C15	#odes[1,V]
n0
C16	#dZdt_deq_aug[0.155051,A]
n0
C17	#dZdt_deq_aug[0.155051,B]
n0
C18	#dZdt_deq_aug[0.155051,C]
n0
C19	#dZdt_deq_aug[0.644949,A]
n0
C20	#dZdt_deq_aug[0.644949,B]
n0
C21	#dZdt_deq_aug[0.644949,C]
n0
C22	#dZdt_deq_aug[1,A]
n0
C23	#dZdt_deq_aug[1,B]
n0
C24	#dZdt_deq_aug[1,C]
n0
C25	#dXdt_deq_aug[0.155051,V]
n0
C26	#dXdt_deq_aug[0.644949,V]
n0
C27	#dXdt_deq_aug[1,V]
n0
x16	# initial guess
0 1
1 1
2 1
3 1
4 1
5 1
6 1
7 1
8 1
9 1
10 1
11 1
12 1.0
13 1.0
14 1.0
27 1.0
r	#28 ranges (rhs's)
4 0.0
4 0.0
4 0.0
4 0.0
4 0.0
4 0.0
4 0.0
4 0.0
4 0.0
4 0.9999998888889259
4 0.9999998888889259
4 0.9999998888889259
4 0.9999998888889259
4 0.0
4 0.0
4 0.0
4 -4.139387691339813
4 -4.139387691339813
4 -4.139387691339813
4 1.7393876913398163
4 1.7393876913398163
4 1.7393876913398163
4 -2.999999999999993
4 -2.999999999999993
4 -2.999999999999993
4 -4.139387691339813
4 1.7393876913398163
4 -2.999999999999993
b	#28 bounds (on variables)
3
3
3
3
3
3
3
3
3
3
3
3
3
3
3
3
3
3
3
3
3
3
3
3
3
3
3
3
k27	#intermediate Jacobian column lengths
6
12
16
22
28
32
38
44
48
54
60
66
71
76
81
83
85
87
89
91
93
95
97
99
101
103
105
J0 5
15 1
0 0
1 0
9 0
12 0
J1 5
16 1
0 0
1 0
9 0
12 0
J2 6
17 1
0 0
1 0
2 0
9 0
12 0
J3 5
18 1
3 0
4 0
10 0
13 0
J4 5
19 1
3 0
4 0
10 0
13 0
J5 6
20 1
3 0
4 0
5 0
10 0
13 0
J6 5
21 1
6 0
7 0
11 0
14 0
J7 5
22 1
6 0
7 0
11 0
14 0
J8 6
23 1
6 0
7 0
8 0
11 0
14 0
J9 1
27 1
J10 1
12 1
J11 1
13 1
J12 1
14 1
J13 2
24 1
12 -0.10000000000000002
J14 2
25 1
13 -0.10000000000000002
J15 2
26 1
14 -0.10000000000000002
J16 4
0 -3.2247448713915885
3 -1.1678400846904051
6 0.2531972647421808
15 1.0
J17 4
1 -3.2247448713915885
4 -1.1678400846904051
7 0.2531972647421808
16 1.0
J18 4
2 -3.2247448713915885
5 -1.1678400846904051
8 0.2531972647421808
17 1.0
J19 4
0 3.5678400846904044
3 -0.7752551286084095
6 -1.0531972647421817
18 1.0
J20 4
1 3.5678400846904044
4 -0.7752551286084095
7 -1.0531972647421817
19 1.0
J21 4
2 3.5678400846904044
5 -0.7752551286084095
8 -1.0531972647421817
20 1.0
J22 4
0 -5.531972647421805
3 7.531972647421807
6 -5.000000000000001
21 1.0
J23 4
1 -5.531972647421805
4 7.531972647421807
7 -5.000000000000001
22 1.0
J24 4
2 -5.531972647421805
5 7.531972647421807
8 -5.000000000000001
23 1.0
J25 4
9 -3.2247448713915885
10 -1.1678400846904051
11 0.2531972647421808
24 1.0
J26 4
9 3.5678400846904044
10 -0.7752551286084095
11 -1.0531972647421817
25 1.0
J27 4
9 -5.531972647421805
10 7.531972647421807
11 -5.000000000000001
26 1.0
