examples/example_20/_reconciled.col
Z[0.155051,A]
Z[0.155051,B]
Z[0.155051,C]
Z[0.644949,A]
Z[0.644949,B]
Z[0.644949,C]
Z[1,A]
Z[1,B]
Z[1,C]
X[0.155051,V]
X[0.644949,V]
X[1,V]
step[0.155051,s_Qin_B]
step[0.644949,s_Qin_B]
step[1,s_Qin_B]
dZdt[0.155051,A]
dZdt[0.155051,B]
dZdt[0.155051,C]
dZdt[0.644949,A]
dZdt[0.644949,B]
dZdt[0.644949,C]
dZdt[1,A]
dZdt[1,B]
dZdt[1,C]
dXdt[0.155051,V]
dXdt[0.644949,V]
dXdt[1,V]
step[0,s_Qin_B]
